80 254624
43 9 34 51 47 25 2 32 48 59 54 14 31 58 77 60 19 62 49 7 24 33 15 28 63 68 76 71 45 52 75 26 78 70 79 69 17 57 37 40 18 56 10 8 29 46 21 53 35 61 23 50 22 64 30 6 20 11 38 13 39 66 65 80 27 16 5 74 42 67 73 3 1 44 55 72 4 41 12 36 
